p cnf 13 22
-13 -11 -6 0
-13 -9 7 0
13 8 4 0
13 -7 -5 0
13 -7 2 0
13 7 -1 0
-13 -5 -3 0
12 -11 -1 0
12 9 -8 0
-12 -5 2 0
11 -10 6 0
11 -9 7 0
-11 -9 5 0
-11 7 -6 0
-11 2 -1 0
-10 -9 1 0
10 8 1 0
-10 7 6 0
9 -6 -3 0
-8 7 4 0
8 5 2 0
-4 3 1 0
